28177
1 0 1 1 1 1 1 1 1 1 0 0 0 0 0 0 0 1 1 0 1 1 0 1 1 0 0 0 1 1 
18 6 21 24 2 6 21 28 18 28 4 28 20 3 28 18 3 20 24 0 18 21 5 24 23 18 24 28 29 2 6 4 4 21 28 6 20 8 24 21 18 9 6 4 8 4 3 21 6 20 24 24 24 21 8 6 18 9 18 7 29 0 7 8 3 6 5 17 28 7 18 6 6 9 23 23 20 23 8 24 23 0 9 7 29 20 6 5 24 7 28 6 7 7 2 3 28 6 0 28 28 21 7 18 4 0 4 24 24 3 6 4 18 6 6 8 28 7 17 8 9 18 17 6 9 21 2 28 4 17 28 24 7 20 23 9 3 3 28 20 6 18 28 7 7 5 24 21 18 7 24 17 23 0 8 28 2 21 3 3 3 0 23 24 5 24 5 4 3 21 5 20 28 20 4 2 0 20 29 20 5 21 2 6 6 8 28 23 0 21 2 21 4 4 7 28 7 21 23 6 
